c Result of efficient AIG-to-CNF conversion using package CNF
p cnf 529 1902
2 -3 -29 0
2 -3 -23 -244 0
-2 3 0
-2 23 29 0
-2 29 244 0
3 525 4 -8 -18 0
-3 -525 0
-3 18 0
-3 8 0
-3 -4 0
-4 506 507 5 6 0
4 -506 0
4 -6 0
4 -5 0
4 -507 0
-5 497 498 500 0
5 -497 0
5 -500 0
5 -498 0
-6 499 501 505 7 0
6 -7 0
6 -505 0
6 -499 0
6 -501 0
-7 502 503 504 0
7 -502 0
7 -504 0
7 -503 0
8 9 13 -17 0
-8 -9 0
-8 -13 0
-8 17 0
-9 518 523 10 12 0
9 -518 0
9 -12 0
9 -10 0
9 -523 0
-10 511 521 522 11 0
10 -11 0
10 -522 0
10 -511 0
10 -521 0
-11 509 510 0
11 -509 0
11 -510 0
-12 508 519 520 0
12 -508 0
12 -520 0
12 -519 0
-13 524 14 0
13 -524 0
13 -14 0
-14 15 16 4 9 0
14 -9 0
14 -15 0
14 -4 0
14 -16 0
-15 515 516 517 0
15 -515 0
15 -517 0
15 -516 0
-16 512 513 514 0
16 -512 0
16 -514 0
16 -513 0
17 -465 527 528 0
-17 465 0
-17 -528 0
-17 -527 0
18 -19 -22 0
-18 19 0
-18 22 0
19 526 -20 0
-19 -526 0
-19 20 0
20 527 -21 0
20 -465 -527 528 0
-20 527 21 0
-20 -527 -528 0
-20 465 -527 0
21 -467 528 0
21 -466 -528 0
-21 467 528 0
-21 466 -528 0
22 -465 527 -528 0
22 -466 527 528 0
-22 -527 0
-22 465 -528 0
-22 466 528 0
23 13 -24 0
-23 -13 0
-23 24 0
24 525 -25 0
-24 -525 0
-24 25 0
25 526 -26 0
-25 -526 0
-25 26 0
26 -527 -27 0
26 527 -28 0
-26 527 28 0
-26 -527 27 0
27 -466 528 0
27 -465 -528 0
-27 466 528 0
-27 465 -528 0
28 -468 528 0
28 -467 -528 0
-28 468 528 0
-28 467 -528 0
-29 -30 -171 209 0
-29 30 171 209 0
29 -209 0
29 -30 171 0
29 30 -171 0
30 -31 -119 0
-30 31 0
-30 119 0
31 -32 -59 0
-31 32 0
-31 59 0
32 -524 14 -48 0
32 524 14 -33 0
-32 -14 0
-32 -524 48 0
-32 524 33 0
-33 525 34 0
-33 -525 41 0
33 -525 -41 0
33 525 -34 0
-34 526 35 0
-34 -526 38 0
34 -526 -38 0
34 526 -35 0
-35 -527 37 0
-35 527 36 0
35 527 -36 0
35 -527 -37 0
36 -493 528 0
36 -492 -528 0
-36 493 528 0
-36 492 -528 0
37 -491 528 0
37 -490 -528 0
-37 491 528 0
-37 490 -528 0
38 527 -39 0
38 -527 -40 0
-38 -527 40 0
-38 527 39 0
39 -489 528 0
39 -488 -528 0
-39 489 528 0
-39 488 -528 0
40 -487 528 0
40 -486 -528 0
-40 487 528 0
-40 486 -528 0
41 526 -42 0
41 -526 -45 0
-41 -526 45 0
-41 526 42 0
42 527 -43 0
42 -527 -44 0
-42 -527 44 0
-42 527 43 0
43 -485 528 0
43 -484 -528 0
-43 485 528 0
-43 484 -528 0
44 -483 528 0
44 -482 -528 0
-44 483 528 0
-44 482 -528 0
45 527 -46 0
45 -527 -47 0
-45 -527 47 0
-45 527 46 0
46 -481 528 0
46 -480 -528 0
-46 481 528 0
-46 480 -528 0
47 -479 528 0
47 -478 -528 0
-47 479 528 0
-47 478 -528 0
48 525 -49 0
48 -525 -56 0
-48 -525 56 0
-48 525 49 0
49 526 -50 0
49 -526 -53 0
-49 -526 53 0
-49 526 50 0
50 527 -51 0
50 -527 -52 0
-50 -527 52 0
-50 527 51 0
51 -477 528 0
51 -476 -528 0
-51 477 528 0
-51 476 -528 0
52 -475 528 0
52 -474 -528 0
-52 475 528 0
-52 474 -528 0
53 527 -54 0
53 -527 -55 0
-53 -527 55 0
-53 527 54 0
54 -473 528 0
54 -472 -528 0
-54 473 528 0
-54 472 -528 0
55 -471 528 0
55 -470 -528 0
-55 471 528 0
-55 470 -528 0
56 -526 -17 0
56 526 -57 0
-56 526 57 0
-56 -526 17 0
57 -527 -21 0
57 527 -58 0
-57 527 58 0
-57 -527 21 0
58 -469 528 0
58 -468 -528 0
-58 469 528 0
-58 468 -528 0
59 -60 -87 0
-59 60 0
-59 87 0
60 -524 14 -76 0
60 524 14 -61 0
-60 -14 0
-60 -524 76 0
-60 524 61 0
-61 525 62 0
-61 -525 69 0
61 -525 -69 0
61 525 -62 0
-62 526 63 0
-62 -526 66 0
62 -526 -66 0
62 526 -63 0
-63 -527 65 0
-63 527 64 0
63 527 -64 0
63 -527 -65 0
64 -494 528 0
64 -493 -528 0
-64 494 528 0
-64 493 -528 0
65 -492 528 0
65 -491 -528 0
-65 492 528 0
-65 491 -528 0
66 527 -67 0
66 -527 -68 0
-66 -527 68 0
-66 527 67 0
67 -490 528 0
67 -489 -528 0
-67 490 528 0
-67 489 -528 0
68 -488 528 0
68 -487 -528 0
-68 488 528 0
-68 487 -528 0
69 526 -70 0
69 -526 -73 0
-69 -526 73 0
-69 526 70 0
70 527 -71 0
70 -527 -72 0
-70 -527 72 0
-70 527 71 0
71 -486 528 0
71 -485 -528 0
-71 486 528 0
-71 485 -528 0
72 -484 528 0
72 -483 -528 0
-72 484 528 0
-72 483 -528 0
73 527 -74 0
73 -527 -75 0
-73 -527 75 0
-73 527 74 0
74 -482 528 0
74 -481 -528 0
-74 482 528 0
-74 481 -528 0
75 -480 528 0
75 -479 -528 0
-75 480 528 0
-75 479 -528 0
76 525 -77 0
76 -525 -84 0
-76 -525 84 0
-76 525 77 0
77 526 -78 0
77 -526 -81 0
-77 -526 81 0
-77 526 78 0
78 527 -79 0
78 -527 -80 0
-78 -527 80 0
-78 527 79 0
79 -478 528 0
79 -477 -528 0
-79 478 528 0
-79 477 -528 0
80 -476 528 0
80 -475 -528 0
-80 476 528 0
-80 475 -528 0
81 527 -82 0
81 -527 -83 0
-81 -527 83 0
-81 527 82 0
82 -474 528 0
82 -473 -528 0
-82 474 528 0
-82 473 -528 0
83 -472 528 0
83 -471 -528 0
-83 472 528 0
-83 471 -528 0
84 -526 -22 0
84 526 -85 0
-84 526 85 0
-84 -526 22 0
85 527 -86 0
85 -527 -28 0
-85 -527 28 0
-85 527 86 0
86 -470 528 0
86 -469 -528 0
-86 470 528 0
-86 469 -528 0
87 -88 -103 0
-87 88 0
-87 103 0
88 -524 14 -97 0
88 524 14 -89 0
-88 -14 0
-88 -524 97 0
-88 524 89 0
-89 525 90 0
-89 -525 94 0
89 -525 -94 0
89 525 -90 0
-90 526 91 0
-90 -526 93 0
90 -526 -93 0
90 526 -91 0
-91 527 92 0
-91 -527 36 0
91 -527 -36 0
91 527 -92 0
92 -495 528 0
92 -494 -528 0
-92 495 528 0
-92 494 -528 0
93 527 -37 0
93 -527 -39 0
-93 -527 39 0
-93 527 37 0
94 526 -95 0
94 -526 -96 0
-94 -526 96 0
-94 526 95 0
95 527 -40 0
95 -527 -43 0
-95 -527 43 0
-95 527 40 0
96 527 -44 0
96 -527 -46 0
-96 -527 46 0
-96 527 44 0
97 525 -98 0
97 -525 -101 0
-97 -525 101 0
-97 525 98 0
98 526 -99 0
98 -526 -100 0
-98 -526 100 0
-98 526 99 0
99 527 -47 0
99 -527 -51 0
-99 -527 51 0
-99 527 47 0
100 527 -52 0
100 -527 -54 0
-100 -527 54 0
-100 527 52 0
101 -526 -20 0
101 526 -102 0
-101 526 102 0
-101 -526 20 0
102 527 -55 0
102 -527 -58 0
-102 -527 58 0
-102 527 55 0
-103 496 104 0
-103 495 -104 0
103 -496 104 0
103 -495 -104 0
104 -524 14 -113 0
104 524 14 -105 0
-104 -14 0
-104 -524 113 0
-104 524 105 0
-105 525 106 0
-105 -525 110 0
105 -525 -110 0
105 525 -106 0
-106 526 107 0
-106 -526 109 0
106 -526 -109 0
106 526 -107 0
-107 527 108 0
-107 -527 64 0
107 -527 -64 0
107 527 -108 0
108 -496 528 0
108 -495 -528 0
-108 496 528 0
-108 495 -528 0
109 527 -65 0
109 -527 -67 0
-109 -527 67 0
-109 527 65 0
110 526 -111 0
110 -526 -112 0
-110 -526 112 0
-110 526 111 0
111 527 -68 0
111 -527 -71 0
-111 -527 71 0
-111 527 68 0
112 527 -72 0
112 -527 -74 0
-112 -527 74 0
-112 527 72 0
113 525 -114 0
113 -525 -117 0
-113 -525 117 0
-113 525 114 0
114 526 -115 0
114 -526 -116 0
-114 -526 116 0
-114 526 115 0
115 527 -75 0
115 -527 -79 0
-115 -527 79 0
-115 527 75 0
116 527 -80 0
116 -527 -82 0
-116 -527 82 0
-116 527 80 0
117 526 -118 0
117 -526 -26 0
-117 -526 26 0
-117 526 118 0
118 527 -83 0
118 -527 -86 0
-118 -527 86 0
-118 527 83 0
119 -23 -120 0
-119 23 0
-119 120 0
120 -121 -162 0
-120 121 0
-120 162 0
121 -122 -144 -153 -156 0
-121 156 0
-121 122 0
-121 153 0
-121 144 0
122 -123 -127 -141 0
-122 123 0
-122 127 0
-122 141 0
123 525 13 -117 -124 0
-123 -525 0
-123 124 0
-123 117 0
-123 -13 0
124 525 -125 0
124 -525 -126 0
-124 -525 126 0
-124 525 125 0
125 526 -53 0
125 -526 -57 0
-125 -526 57 0
-125 526 53 0
126 526 -17 0
-126 -526 0
-126 17 0
127 -524 131 -137 0
127 -128 131 -137 0
-127 137 0
-127 -131 0
-127 524 128 0
-128 525 110 0
-128 525 94 0
-128 525 129 0
128 -525 0
128 -94 -110 -129 0
129 -526 -130 0
129 526 -73 -96 0
-129 -526 130 0
-129 526 96 0
-129 526 73 0
130 -78 -99 0
-130 78 0
-130 99 0
-131 525 14 136 0
-131 14 -132 136 0
131 -14 0
131 -136 0
131 -525 132 0
132 524 -133 -134 -135 0
-132 -524 0
-132 135 0
-132 134 0
-132 133 0
133 -98 -114 0
-133 98 0
-133 114 0
134 526 -81 0
134 -526 -85 0
-134 -526 85 0
-134 526 81 0
135 526 -100 0
135 -526 -102 0
-135 -526 102 0
-135 526 100 0
136 -524 117 0
136 -524 18 0
136 -524 101 0
-136 524 0
-136 -18 -101 -117 0
137 524 14 -138 0
137 -524 14 -24 0
-137 -14 0
-137 524 138 0
-137 -524 24 0
-138 525 140 0
-138 -525 139 0
138 -525 -139 0
138 525 -140 0
139 526 -116 0
139 -526 -118 0
-139 -526 118 0
-139 526 116 0
140 526 -112 0
140 -526 -115 0
-140 -526 115 0
-140 526 112 0
141 -524 14 -143 0
141 524 14 -142 0
-141 -14 0
-141 -524 143 0
-141 524 142 0
-142 -525 49 0
-142 525 41 0
142 525 -41 0
142 -525 -49 0
143 525 -56 0
-143 -525 0
-143 56 0
144 524 14 -148 0
144 14 -145 -148 0
-144 -14 0
-144 148 0
-144 -524 145 0
145 -124 -146 -147 0
-145 124 0
-145 146 0
-145 147 0
146 -525 -19 0
146 525 -135 0
-146 525 135 0
-146 -525 19 0
147 525 -134 0
147 -525 526 -22 0
-147 -525 -526 0
-147 525 134 0
-147 -525 22 0
-148 -525 151 0
-148 149 150 151 0
148 -151 0
148 525 -149 0
148 525 -150 0
149 526 -38 -66 -93 0
-149 -526 0
-149 93 0
-149 66 0
-149 38 0
150 -526 -42 -70 -95 0
-150 95 0
-150 526 0
-150 70 0
-150 42 0
-151 524 129 0
-151 524 525 0
-151 524 152 0
151 -524 0
151 -525 -129 -152 0
152 526 -45 0
152 -526 -50 0
-152 -526 50 0
-152 526 45 0
153 -143 -154 0
-153 143 0
-153 154 0
154 13 -155 0
-154 -13 0
-154 155 0
155 525 -84 0
-155 -525 0
-155 84 0
156 525 -158 -161 0
156 -157 -158 -161 0
-156 161 0
-156 158 0
-156 -525 157 0
157 524 -125 0
-157 -524 0
-157 125 0
158 13 -113 -159 160 0
-158 -160 0
-158 -13 0
-158 113 0
-158 159 0
-159 524 525 152 0
159 -524 0
159 -152 0
159 -525 0
-160 524 14 0
-160 14 -126 0
160 -14 0
160 -524 126 0
161 13 -76 -97 -147 0
-161 147 0
-161 -13 0
-161 97 0
-161 76 0
162 -163 -167 -169 -170 0
-162 170 0
-162 163 0
-162 169 0
-162 167 0
163 -524 14 -166 0
163 524 14 -164 0
-163 -14 0
-163 -524 166 0
-163 524 164 0
-164 -525 140 0
-164 525 165 0
164 -525 -140 0
164 525 -165 0
-165 -526 111 0
-165 526 109 0
165 526 -109 0
165 -526 -111 0
166 -525 -25 0
166 525 -139 0
-166 525 139 0
-166 -525 25 0
167 524 14 -168 0
167 -524 14 -155 0
-167 -14 0
-167 524 168 0
-167 -524 155 0
-168 -525 77 0
-168 525 69 0
168 525 -69 0
168 -525 -77 0
169 525 13 -101 0
-169 101 0
-169 -13 0
-169 -525 0
170 13 -48 -146 -166 0
-170 166 0
-170 -13 0
-170 146 0
-170 48 0
171 163 -172 -194 0
171 -163 -172 -178 0
-171 172 0
-171 -163 178 0
-171 163 194 0
172 -23 -173 0
-172 23 0
-172 173 0
173 -144 -174 -175 -177 0
-173 177 0
-173 144 0
-173 175 0
-173 174 0
174 -127 -141 -167 0
-174 127 0
-174 141 0
-174 167 0
175 -123 -176 0
-175 123 0
-175 176 0
176 -153 -169 0
-176 153 0
-176 169 0
177 -156 -170 0
-177 156 0
-177 170 0
-178 -32 179 0
-178 32 187 0
178 -32 -179 0
178 32 -187 0
-179 -60 180 0
-179 60 184 0
179 -60 -180 0
179 60 -184 0
-180 88 183 0
-180 -88 181 182 0
180 -88 -181 0
180 88 -183 0
180 -88 -182 0
181 -495 -104 0
-181 495 0
-181 104 0
182 -494 104 0
-182 494 0
-182 -104 0
-183 492 104 0
-183 493 -104 0
183 -493 -104 0
183 -492 104 0
184 88 -186 0
184 -88 -185 0
-184 -88 185 0
-184 88 186 0
-185 490 104 0
-185 491 -104 0
185 -491 -104 0
185 -490 104 0
-186 488 104 0
-186 489 -104 0
186 -489 -104 0
186 -488 104 0
187 -60 -188 0
187 60 -191 0
-187 60 191 0
-187 -60 188 0
188 88 -190 0
188 -88 -189 0
-188 -88 189 0
-188 88 190 0
-189 486 104 0
-189 487 -104 0
189 -487 -104 0
189 -486 104 0
-190 484 104 0
-190 485 -104 0
190 -485 -104 0
190 -484 104 0
191 88 -193 0
191 -88 -192 0
-191 -88 192 0
-191 88 193 0
-192 482 104 0
-192 483 -104 0
192 -483 -104 0
192 -482 104 0
-193 480 104 0
-193 481 -104 0
193 -481 -104 0
193 -480 104 0
194 -32 -195 0
194 32 -202 0
-194 32 202 0
-194 -32 195 0
195 -60 -196 0
195 60 -199 0
-195 60 199 0
-195 -60 196 0
196 88 -198 0
196 -88 -197 0
-196 -88 197 0
-196 88 198 0
-197 478 104 0
-197 479 -104 0
197 -479 -104 0
197 -478 104 0
-198 476 104 0
-198 477 -104 0
198 -477 -104 0
198 -476 104 0
199 88 -201 0
199 -88 -200 0
-199 -88 200 0
-199 88 201 0
-200 474 104 0
-200 475 -104 0
200 -475 -104 0
200 -474 104 0
-201 472 104 0
-201 473 -104 0
201 -473 -104 0
201 -472 104 0
202 -60 -203 0
202 60 -206 0
-202 60 206 0
-202 -60 203 0
203 88 -205 0
203 -88 -204 0
-203 -88 204 0
-203 88 205 0
-204 470 104 0
-204 471 -104 0
204 -471 -104 0
204 -470 104 0
-205 468 104 0
-205 469 -104 0
205 -469 -104 0
205 -468 104 0
206 -88 -207 0
206 88 -208 0
-206 -88 207 0
-206 88 208 0
-207 466 104 0
-207 467 -104 0
207 -467 -104 0
207 -466 104 0
208 -465 -104 0
-208 465 0
-208 104 0
209 119 -213 0
209 32 -213 0
209 210 -213 0
-209 213 0
-209 -32 -119 -210 0
210 -60 -211 0
-210 60 0
-210 211 0
211 -88 -212 0
-211 88 0
-211 212 0
212 -496 -104 0
-212 496 0
-212 104 0
213 163 -172 -229 0
213 -163 -172 -214 0
-213 172 0
-213 -163 214 0
-213 163 229 0
-214 -32 215 0
-214 32 222 0
214 -32 -215 0
214 32 -222 0
-215 -60 216 0
-215 60 219 0
215 -60 -216 0
215 60 -219 0
-216 88 218 0
-216 -88 212 217 0
216 -88 -212 0
216 88 -218 0
216 -88 -217 0
217 -495 104 0
-217 495 0
-217 -104 0
-218 493 104 0
-218 494 -104 0
218 -494 -104 0
218 -493 104 0
219 88 -221 0
219 -88 -220 0
-219 -88 220 0
-219 88 221 0
-220 491 104 0
-220 492 -104 0
220 -492 -104 0
220 -491 104 0
-221 489 104 0
-221 490 -104 0
221 -490 -104 0
221 -489 104 0
222 -60 -223 0
222 60 -226 0
-222 60 226 0
-222 -60 223 0
223 88 -225 0
223 -88 -224 0
-223 -88 224 0
-223 88 225 0
-224 487 104 0
-224 488 -104 0
224 -488 -104 0
224 -487 104 0
-225 485 104 0
-225 486 -104 0
225 -486 -104 0
225 -485 104 0
226 88 -228 0
226 -88 -227 0
-226 -88 227 0
-226 88 228 0
-227 483 104 0
-227 484 -104 0
227 -484 -104 0
227 -483 104 0
-228 481 104 0
-228 482 -104 0
228 -482 -104 0
228 -481 104 0
229 -32 -230 0
229 32 -237 0
-229 32 237 0
-229 -32 230 0
230 -60 -231 0
230 60 -234 0
-230 60 234 0
-230 -60 231 0
231 88 -233 0
231 -88 -232 0
-231 -88 232 0
-231 88 233 0
-232 479 104 0
-232 480 -104 0
232 -480 -104 0
232 -479 104 0
-233 477 104 0
-233 478 -104 0
233 -478 -104 0
233 -477 104 0
234 88 -236 0
234 -88 -235 0
-234 -88 235 0
-234 88 236 0
-235 475 104 0
-235 476 -104 0
235 -476 -104 0
235 -475 104 0
-236 473 104 0
-236 474 -104 0
236 -474 -104 0
236 -473 104 0
237 -60 -238 0
237 60 -241 0
-237 60 241 0
-237 -60 238 0
238 88 -240 0
238 -88 -239 0
-238 -88 239 0
-238 88 240 0
-239 471 104 0
-239 472 -104 0
239 -472 -104 0
239 -471 104 0
-240 469 104 0
-240 470 -104 0
240 -470 -104 0
240 -469 104 0
241 88 -243 0
241 -88 -242 0
-241 -88 242 0
-241 88 243 0
-242 467 104 0
-242 468 -104 0
242 -468 -104 0
242 -467 104 0
-243 465 104 0
-243 466 -104 0
243 -466 -104 0
243 -465 104 0
-244 245 364 417 433 0
244 -433 0
244 -245 0
244 -417 0
244 -364 0
-245 246 276 331 0
-245 175 246 276 0
245 -276 0
245 -246 0
245 -175 -331 0
246 120 -173 -247 0
246 -173 -247 274 0
-246 173 0
-246 247 0
-246 -120 -274 0
-247 163 262 0
-247 -163 248 255 0
247 -163 -248 0
247 163 -262 0
247 -163 -255 0
248 -32 60 -252 0
248 -32 -60 -249 0
-248 32 0
-248 -60 249 0
-248 60 252 0
-249 88 250 0
-249 -88 251 0
249 -88 -251 0
249 88 -250 0
-250 471 104 0
-250 470 -104 0
250 -471 104 0
250 -470 -104 0
-251 469 104 0
-251 468 -104 0
251 -469 104 0
251 -468 -104 0
252 88 -254 0
252 -88 -253 0
-252 -88 253 0
-252 88 254 0
-253 473 104 0
-253 472 -104 0
253 -473 104 0
253 -472 -104 0
-254 475 104 0
-254 474 -104 0
254 -475 104 0
254 -474 -104 0
255 32 60 -259 0
255 32 -60 -256 0
-255 -32 0
-255 -60 256 0
-255 60 259 0
256 88 -258 0
256 -88 -257 0
-256 -88 257 0
-256 88 258 0
-257 477 104 0
-257 476 -104 0
257 -477 104 0
257 -476 -104 0
-258 479 104 0
-258 478 -104 0
258 -479 104 0
258 -478 -104 0
259 88 -261 0
259 -88 -260 0
-259 -88 260 0
-259 88 261 0
-260 481 104 0
-260 480 -104 0
260 -481 104 0
260 -480 -104 0
-261 483 104 0
-261 482 -104 0
261 -483 104 0
261 -482 -104 0
262 -32 -263 0
262 32 -270 0
-262 32 270 0
-262 -32 263 0
263 -60 -264 0
263 60 -267 0
-263 60 267 0
-263 -60 264 0
264 88 -266 0
264 -88 -265 0
-264 -88 265 0
-264 88 266 0
-265 485 104 0
-265 484 -104 0
265 -485 104 0
265 -484 -104 0
-266 487 104 0
-266 486 -104 0
266 -487 104 0
266 -486 -104 0
267 88 -269 0
267 -88 -268 0
-267 -88 268 0
-267 88 269 0
-268 489 104 0
-268 488 -104 0
268 -489 104 0
268 -488 -104 0
-269 491 104 0
-269 490 -104 0
269 -491 104 0
269 -490 -104 0
270 60 -211 0
270 -60 -271 0
-270 -60 271 0
-270 60 211 0
271 88 -273 0
271 -88 -272 0
-271 -88 272 0
-271 88 273 0
-272 493 104 0
-272 492 -104 0
272 -493 104 0
272 -492 -104 0
-273 495 104 0
-273 494 -104 0
273 -495 104 0
273 -494 -104 0
274 -32 -275 0
-274 32 0
-274 275 0
275 -60 -241 0
-275 60 0
-275 241 0
-276 277 295 0
-276 -120 -289 295 0
276 -295 0
276 -277 289 0
276 120 -277 0
277 -163 -173 -278 0
277 -173 -278 -285 0
-277 278 0
-277 173 0
-277 163 285 0
278 32 -282 0
278 -32 163 0
278 -32 -279 0
-278 32 282 0
-278 -32 -163 279 0
279 -60 -280 0
279 60 -281 0
-279 60 281 0
-279 -60 280 0
280 88 -257 0
280 -88 -254 0
-280 -88 254 0
-280 88 257 0
281 88 -260 0
281 -88 -258 0
-281 -88 258 0
-281 88 260 0
282 -60 -283 0
282 60 -284 0
-282 60 284 0
-282 -60 283 0
283 88 -265 0
283 -88 -261 0
-283 -88 261 0
-283 88 265 0
284 88 -268 0
284 -88 -266 0
-284 -88 266 0
-284 88 268 0
285 -32 -286 0
-285 32 0
-285 286 0
286 -60 -287 0
286 60 -288 0
-286 60 288 0
-286 -60 287 0
287 88 -272 0
287 -88 -269 0
-287 -88 269 0
-287 88 272 0
288 88 -212 0
288 -88 -273 0
-288 -88 273 0
-288 88 212 0
289 -32 -290 0
289 32 -293 0
-289 32 293 0
-289 -32 290 0
290 -60 -291 0
290 60 -292 0
-290 60 292 0
-290 -60 291 0
291 88 -239 0
291 -88 -236 0
-291 -88 236 0
-291 88 239 0
292 88 -242 0
292 -88 -240 0
-292 -88 240 0
-292 88 242 0
293 -60 -294 0
-293 60 0
-293 294 0
294 -88 -243 0
-294 88 0
-294 243 0
-295 296 322 0
-295 -120 -194 296 0
295 -296 0
295 120 -322 0
295 194 -322 0
296 -120 173 -297 0
296 -120 -297 311 0
-296 120 0
-296 297 0
-296 -173 -311 0
297 -32 -298 0
297 32 -305 0
-297 32 305 0
-297 -32 298 0
298 -60 -299 0
298 60 -302 0
-298 60 302 0
-298 -60 299 0
299 88 -301 0
299 -88 -300 0
-299 -88 300 0
-299 88 301 0
-300 482 104 0
-300 481 -104 0
300 -482 104 0
300 -481 -104 0
-301 484 104 0
-301 483 -104 0
301 -484 104 0
301 -483 -104 0
302 88 -304 0
302 -88 -303 0
-302 -88 303 0
-302 88 304 0
-303 486 104 0
-303 485 -104 0
303 -486 104 0
303 -485 -104 0
-304 488 104 0
-304 487 -104 0
304 -488 104 0
304 -487 -104 0
305 -60 -306 0
305 60 -309 0
-305 60 309 0
-305 -60 306 0
306 88 -308 0
306 -88 -307 0
-306 -88 307 0
-306 88 308 0
-307 490 104 0
-307 489 -104 0
307 -490 104 0
307 -489 -104 0
-308 492 104 0
-308 491 -104 0
308 -492 104 0
308 -491 -104 0
309 -88 -310 0
309 88 -103 0
-309 88 103 0
-309 -88 310 0
-310 494 104 0
-310 493 -104 0
310 -494 104 0
310 -493 -104 0
-311 -163 312 0
-311 163 319 0
311 -163 -312 0
311 163 -319 0
-312 -32 316 0
-312 32 313 0
312 32 -313 0
312 -32 -316 0
313 -60 -314 0
313 60 -315 0
-313 60 315 0
-313 -60 314 0
314 88 -204 0
314 -88 -201 0
-314 -88 201 0
-314 88 204 0
315 88 -207 0
315 -88 -205 0
-315 -88 205 0
-315 88 207 0
316 -60 -317 0
316 60 -318 0
-316 60 318 0
-316 -60 317 0
317 88 -197 0
317 -88 -193 0
-317 -88 193 0
-317 88 197 0
318 88 -200 0
318 -88 -198 0
-318 -88 198 0
-318 88 200 0
319 -32 -320 0
-319 32 0
-319 320 0
320 -60 -321 0
-320 60 0
-320 321 0
321 -88 -208 0
-321 88 0
-321 208 0
322 -31 163 -173 0
322 -163 -173 -323 0
-322 173 0
-322 -163 323 0
-322 31 163 0
-323 -32 327 0
-323 32 324 0
323 32 -324 0
323 -32 -327 0
324 -60 -325 0
324 60 -326 0
-324 60 326 0
-324 -60 325 0
325 88 -307 0
325 -88 -304 0
-325 -88 304 0
-325 88 307 0
326 88 -310 0
326 -88 -308 0
-326 -88 308 0
-326 88 310 0
327 -60 -328 0
327 60 -330 0
-327 60 330 0
-327 -60 328 0
328 -88 -329 0
328 88 -300 0
-328 88 300 0
-328 -88 329 0
-329 480 104 0
-329 479 -104 0
329 -480 104 0
329 -479 -104 0
330 88 -303 0
330 -88 -301 0
-330 -88 301 0
-330 88 303 0
-331 -332 344 363 0
-331 342 344 363 0
331 -344 0
331 -363 0
331 332 -342 0
332 163 -333 -341 0
332 -163 -333 -335 0
-332 333 0
-332 -163 335 0
-332 163 341 0
333 -144 -334 0
-333 144 0
-333 334 0
334 -174 -177 0
-334 174 0
-334 177 0
-335 -32 336 0
-335 32 279 0
335 32 -279 0
335 -32 -336 0
-336 -60 337 0
-336 60 340 0
336 -60 -337 0
336 60 -340 0
-337 88 251 0
-337 -88 338 339 0
337 -88 -338 0
337 88 -251 0
337 -88 -339 0
338 -467 104 0
-338 467 0
-338 -104 0
339 -466 -104 0
-339 466 0
-339 104 0
340 88 -253 0
340 -88 -250 0
-340 -88 250 0
-340 88 253 0
341 -32 -282 0
341 32 -286 0
-341 32 286 0
-341 -32 282 0
342 -32 -293 -343 0
-342 32 0
-342 293 0
-342 343 0
343 -144 -163 -334 0
-343 144 0
-343 163 0
-343 334 0
-344 345 361 0
-344 -175 -360 361 0
344 -361 0
344 -345 360 0
344 175 -345 0
345 163 -297 -333 0
345 -163 -333 -346 0
-345 333 0
-345 -163 346 0
-345 163 297 0
-346 -32 347 0
-346 32 354 0
346 -32 -347 0
346 32 -354 0
-347 -60 348 0
-347 60 351 0
347 -60 -348 0
347 60 -351 0
-348 88 350 0
-348 -88 349 208 0
348 -88 -349 0
348 88 -350 0
348 -88 -208 0
349 -466 104 0
-349 466 0
-349 -104 0
-350 468 104 0
-350 467 -104 0
350 -468 104 0
350 -467 -104 0
351 88 -353 0
351 -88 -352 0
-351 -88 352 0
-351 88 353 0
-352 470 104 0
-352 469 -104 0
352 -470 104 0
352 -469 -104 0
-353 472 104 0
-353 471 -104 0
353 -472 104 0
353 -471 -104 0
354 -60 -355 0
354 60 -358 0
-354 60 358 0
-354 -60 355 0
355 88 -357 0
355 -88 -356 0
-355 -88 356 0
-355 88 357 0
-356 474 104 0
-356 473 -104 0
356 -474 104 0
356 -473 -104 0
-357 476 104 0
-357 475 -104 0
357 -476 104 0
357 -475 -104 0
358 -88 -359 0
358 88 -329 0
-358 88 329 0
-358 -88 359 0
-359 478 104 0
-359 477 -104 0
359 -478 104 0
359 -477 -104 0
360 -319 -343 0
-360 319 0
-360 343 0
361 169 -332 0
361 -332 342 0
361 -332 362 0
-361 332 0
-361 -169 -342 -362 0
362 -123 -154 0
-362 123 0
-362 154 0
363 345 -360 0
363 176 -360 0
-363 360 0
-363 -176 -345 0
-364 365 389 396 408 0
364 -396 0
364 -408 0
364 -365 0
364 -389 0
-365 368 371 0
-365 -120 -366 371 0
365 -371 0
365 366 -368 0
365 120 -368 0
366 32 -210 0
366 -32 -367 0
-366 -32 367 0
-366 32 210 0
367 -60 -267 0
367 60 -271 0
-367 60 271 0
-367 -60 267 0
368 163 -173 -370 0
368 -163 -173 -369 0
-368 173 0
-368 -163 369 0
-368 163 370 0
-369 32 230 0
-369 -32 222 0
369 -32 -222 0
369 32 -230 0
370 -32 -237 0
-370 32 0
-370 237 0
-371 372 380 0
-371 -120 372 -377 0
371 -372 0
371 120 -380 0
371 377 -380 0
372 120 -173 -373 0
372 -173 262 -373 0
-372 173 0
-372 373 0
-372 -120 -262 0
-373 -163 374 0
-373 163 274 0
373 163 -274 0
373 -163 -374 0
-374 -32 376 0
-374 32 375 0
374 32 -375 0
374 -32 -376 0
375 -60 -234 0
375 60 -238 0
-375 60 238 0
-375 -60 234 0
376 -60 -226 0
376 60 -231 0
-376 60 231 0
-376 -60 226 0
377 -32 -378 0
377 32 -379 0
-377 32 379 0
-377 -32 378 0
378 -60 -284 0
378 60 -287 0
-378 60 287 0
-378 -60 284 0
379 -60 -288 0
-379 60 0
-379 288 0
380 163 -173 -387 0
380 -163 -173 -381 0
-380 173 0
-380 -163 381 0
-380 163 387 0
-381 -32 384 0
-381 32 382 0
381 32 -382 0
381 -32 -384 0
382 60 -291 0
382 -60 -383 0
-382 -60 383 0
-382 60 291 0
383 88 -235 0
383 -88 -233 0
-383 -88 233 0
-383 88 235 0
384 -60 -385 0
384 60 -386 0
-384 60 386 0
-384 -60 385 0
385 88 -227 0
385 -88 -225 0
-385 -88 225 0
-385 88 227 0
386 88 -232 0
386 -88 -228 0
-386 -88 228 0
-386 88 232 0
387 -32 -388 0
-387 32 0
-387 388 0
388 -60 -292 0
388 60 -294 0
-388 60 294 0
-388 -60 292 0
389 120 -390 0
389 32 -390 0
389 202 -390 0
-389 390 0
-389 -32 -120 -202 0
390 163 -173 -395 0
390 -163 -173 -391 0
-390 173 0
-390 -163 391 0
-390 163 395 0
-391 -32 392 0
-391 32 327 0
391 32 -327 0
391 -32 -392 0
-392 -60 394 0
-392 60 393 0
392 60 -393 0
392 -60 -394 0
393 88 -359 0
393 -88 -357 0
-393 -88 357 0
-393 88 359 0
394 88 -356 0
394 -88 -353 0
-394 -88 353 0
-394 88 356 0
395 32 -59 0
395 -32 -324 0
-395 -32 324 0
-395 32 59 0
-396 397 404 0
-396 -120 -370 397 0
396 -397 0
396 120 -404 0
396 370 -404 0
397 120 -398 0
397 32 -398 0
397 305 -398 0
-397 398 0
-397 -32 -120 -305 0
398 163 -173 -403 0
398 -163 -173 -399 0
-398 173 0
-398 -163 399 0
-398 163 403 0
-399 -32 400 0
-399 32 316 0
399 32 -316 0
399 -32 -400 0
-400 -60 402 0
-400 60 401 0
400 60 -401 0
400 -60 -402 0
401 88 -192 0
401 -88 -190 0
-401 -88 190 0
-401 88 192 0
402 88 -189 0
402 -88 -186 0
-402 -88 186 0
-402 88 189 0
403 -32 -313 0
403 32 -320 0
-403 32 320 0
-403 -32 313 0
404 163 -173 -366 0
404 -163 -173 -405 0
-404 173 0
-404 -163 405 0
-404 163 366 0
-405 -32 406 0
-405 32 407 0
405 -32 -406 0
405 32 -407 0
-406 60 256 0
-406 -60 252 0
406 -60 -252 0
406 60 -256 0
407 -60 -259 0
407 60 -264 0
-407 60 264 0
-407 -60 259 0
408 120 -409 0
408 -409 416 0
408 32 -409 0
-408 409 0
-408 -32 -120 -416 0
409 163 -173 -413 0
409 -163 -173 -410 0
-409 173 0
-409 -163 410 0
-409 163 413 0
-410 -32 411 0
-410 32 412 0
410 -32 -411 0
410 32 -412 0
-411 60 355 0
-411 -60 351 0
411 -60 -351 0
411 60 -355 0
412 60 -299 0
412 -60 -358 0
-412 -60 358 0
-412 60 299 0
413 -32 -414 0
413 32 -415 0
-413 32 415 0
-413 -32 414 0
414 -60 -302 0
414 60 -306 0
-414 60 306 0
-414 -60 302 0
415 -60 -309 0
-415 60 0
-415 309 0
416 -60 -315 0
416 60 -321 0
-416 60 321 0
-416 -60 315 0
-417 418 424 -425 -432 0
-417 -418 -424 -425 -432 0
-417 418 424 425 432 0
-417 -418 -424 425 432 0
417 418 -424 0
417 -418 424 0
417 425 -432 0
417 -425 432 0
418 163 -173 -423 0
418 -163 -173 -419 0
-418 173 0
-418 -163 419 0
-418 163 423 0
-419 -32 420 0
-419 32 384 0
419 32 -384 0
419 -32 -420 0
-420 -60 421 0
-420 60 422 0
420 -60 -421 0
420 60 -422 0
-421 -88 218 0
-421 88 220 0
421 88 -220 0
421 -88 -218 0
422 88 -224 0
422 -88 -221 0
-422 -88 221 0
-422 88 224 0
423 -32 -382 0
423 32 -388 0
-423 32 388 0
-423 -32 382 0
424 -32 -120 -379 0
-424 32 0
-424 120 0
-424 379 0
425 163 -173 -430 0
425 -163 -173 -426 0
-425 173 0
-425 -163 426 0
-425 163 430 0
-426 -32 427 0
-426 32 429 0
426 -32 -427 0
426 32 -429 0
-427 -60 428 0
-427 60 402 0
427 60 -402 0
427 -60 -428 0
-428 -88 183 0
-428 88 185 0
428 88 -185 0
428 -88 -183 0
429 60 -317 0
429 -60 -401 0
-429 -60 401 0
-429 60 317 0
430 32 -416 0
430 -32 -431 0
-430 -32 431 0
-430 32 416 0
431 60 -314 0
431 -60 -318 0
-431 -60 318 0
-431 60 314 0
432 -32 -120 -415 0
-432 32 0
-432 120 0
-432 415 0
-433 434 439 452 0
-433 -438 439 452 0
433 -452 0
433 -439 0
433 -434 438 0
434 163 -173 -437 0
434 -163 -173 -435 0
-434 173 0
-434 -163 435 0
-434 163 437 0
-435 -32 436 0
-435 32 376 0
435 32 -376 0
435 -32 -436 0
-436 60 223 0
-436 -60 219 0
436 -60 -219 0
436 60 -223 0
437 32 -275 0
437 -32 -375 0
-437 -32 375 0
-437 32 275 0
438 -32 -121 -162 -270 0
-438 270 0
-438 32 0
-438 162 0
-438 121 0
-439 440 -450 0
-439 440 444 0
-439 173 440 0
439 -440 0
439 -173 -444 450 0
440 120 -173 -441 0
440 -173 387 -441 0
-440 173 0
-440 441 0
-440 -120 -387 0
-441 163 377 0
-441 -163 442 443 0
441 163 -377 0
441 -163 -443 0
441 -163 -442 0
442 -32 -60 -340 0
442 -32 60 -280 0
-442 32 0
-442 -60 340 0
-442 60 280 0
443 32 60 -283 0
443 32 -60 -281 0
-443 -32 0
-443 -60 281 0
-443 60 283 0
-444 163 447 0
-444 -163 445 446 0
444 -163 -445 0
444 163 -447 0
444 -163 -446 0
445 -32 60 -188 0
445 -32 -60 -184 0
-445 32 0
-445 -60 184 0
-445 60 188 0
446 32 60 -196 0
446 32 -60 -191 0
-446 -32 0
-446 -60 191 0
-446 60 196 0
447 -32 -448 0
447 32 -449 0
-447 32 449 0
-447 -32 448 0
448 -60 -199 0
448 60 -203 0
-448 60 203 0
-448 -60 199 0
449 -60 -206 0
-449 60 0
-449 206 0
450 -32 -121 -162 -451 0
-450 451 0
-450 32 0
-450 162 0
-450 121 0
451 60 -87 0
451 -60 -326 0
-451 -60 326 0
-451 60 87 0
-452 453 -464 0
-452 453 461 0
-452 173 453 0
452 -453 0
452 -173 -461 464 0
453 120 -454 0
453 32 -454 0
453 449 -454 0
-453 454 0
-453 -32 -120 -449 0
454 163 -173 -459 0
454 -163 -173 -455 0
-454 173 0
-454 -163 455 0
-454 163 459 0
455 -32 -456 0
455 32 -458 0
-455 32 458 0
-455 -32 456 0
456 60 -394 0
456 -60 -457 0
-456 -60 457 0
-456 60 394 0
457 88 -352 0
457 -88 -350 0
-457 -88 350 0
-457 88 352 0
458 60 -328 0
458 -60 -393 0
-458 -60 393 0
-458 60 328 0
459 32 -451 0
459 -32 -460 0
-459 -32 460 0
-459 32 451 0
460 60 -325 0
460 -60 -330 0
-460 -60 330 0
-460 60 325 0
-461 163 289 0
-461 -163 462 463 0
461 163 -289 0
461 -163 -463 0
461 -163 -462 0
462 -32 -60 -422 0
462 -32 60 -385 0
-462 32 0
-462 -60 422 0
-462 60 385 0
463 32 -60 -386 0
463 32 60 -383 0
-463 -32 0
-463 -60 386 0
-463 60 383 0
464 -121 -162 -285 0
-464 121 0
-464 162 0
-464 285 0
-529 0
2 0

